c description: Pigeonhole principle formula for 3 pigeons and 1 holes
c generator: CNFgen (0.9.0)
c copyright: (C) 2012-2020 Massimo Lauria <massimo.lauria@uniroma1.it>
c url: https://massimolauria.net/cnfgen
c command line: cnfgen php 3 1
c
p cnf 3 6
1 0
2 0
3 0
-1 -2 0
-1 -3 0
-2 -3 0
